CPXPARAM_TimeLimit                               7200
CPXPARAM_Read_DataCheck                          1
Parallel mode: deterministic, using up to 8 threads for concurrent optimization.
Tried aggregator 1 time.
LP Presolve eliminated 112 rows and 0 columns.
Reduced LP has 9998 rows, 1801 columns, and 29221 nonzeros.
Presolve time = 0.00 sec. (4.49 ticks)

Iteration log . . .
Iteration:     1   Dual objective     =          1210.000000
Perturbation started.
Iteration:   214   Dual objective     =          1210.000000
Initializing dual steep norms . . .
Iteration:   215   Dual objective     =          1210.000010
Iteration:   478   Dual objective     =          1210.015479
Iteration:   706   Dual objective     =          1210.015972
Iteration:   947   Dual objective     =          1210.016079
Iteration:  1174   Dual objective     =          1210.016358
Iteration:  1352   Dual objective     =          1210.016708
Iteration:  1534   Dual objective     =          1210.016744
Iteration:  1747   Dual objective     =          1210.016796
Iteration:  1974   Dual objective     =          1210.016805
Removing perturbation.

Dual simplex solved model.

